\ENCODING=ISO-8859-1
\Problem name: TSP

Minimize
 obj1: 12.3890339527082 x1 + 11.4975865633467 x2 + 6.41373927560815 x3
       + 6.83731166914579 x4 + 5.58763043934768 x5 + 12.1067171101007 x6
       + 5.42287166121639 x7 + 8.14119458268356 x8 + 14.5331580080319 x9
       + 6.54538612769916 x10 + 9.24712098789302 x11 + 13.3633506677709 x12
       + 5.02593489625553 x13 + 0.211276076259024 x14 + 12.3029140720198 x15
       + 4.10439326838137 x16 + 11.1319038401733 x17 + 11.9353491612814 x18
       + 9.4294930687377 x19 + 2.76182207687085 x20 + 10.3394061792554 x21
       + 5.57744600627752 x22 + 9.33547651012356 x23 + 6.44400011904383 x24
       + 6.97070406683997 x25 + 5.81275395059231 x26 + 10.3890236051765 x27
       + 8.66523523139955 x28 + 13.2507541110343 x29 + 3.15415584995181 x30
       + 7.48399825324515 x31 + 12.2067508648517 x32 + 2.50828604166546 x33
       + 11.1369638917394 x34 + 8.09269516003539 x35 + 9.64792954237739 x36
       + 14.3858465133297 x37 + 8.19150841878487 x38 + 5.26664090412546 x39
       + 9.74149822119997 x40 + 8.67916875104341 x41 + 6.38620233870331 x42
       + 3.77245360970693 x43 + 12.7215954834186 x44 + 9.32621685406489 x45
       + 14.3089862574853 x46 + 5.87314203395859 x47 + 6.48256531022757 x48
       + 11.3432138502392 x49 + 0.827673344602781 x50 + 9.42372900735457 x51
       + 9.99172214783505 x52 + 11.5921443947233 x53 + 11.9306489359591 x54
       + 6.61851536147247 x55 + 9.3213542932798 x56 + 13.3980716796754 x57
       + 5.82624251923303 x58 + 4.53250487823454 x59 + 16.9695235279168 x60
       + 9.78934493799964 x61 + 14.2677954663358 x62 + 12.6793415704584 x63
       + 4.71467147937399 x64 + 6.40475559329939 x65 + 8.97776509065439 x66
       + 2.37974871924698 x67 + 13.4430411214948 x68 + 14.7822584988858 x69
       + 4.49758932275707 x70 + 4.59018618206554 x71 + 6.78244200167748 x72
       + 1.42427928915426 x73 + 3.61496555199559 x74 + 10.4114002217388 x75
       + 4.39737124748464 x76 + 9.50044552436867 x77 + 6.73775225530575 x78
       + 2.24985134973914 x79 + 6.6493974235722 x80 + 5.96608223820477 x81
       + 6.40222168607909 x82 + 6.94626541325075 x83 + 8.39851820229808 x84
       + 11.1147963075664 x85 + 6.85133149991611 x86 + 4.07757299598789 x87
       + 7.96229582519574 x88 + 8.9461707532932 x89 + 1.02958844564421 x90
       + 5.11042540819169 x91 + 9.104549330609 x92 + 4.92107987093672 x93
       + 5.38390686296609 x94 + 10.3636928296025 x95 + 7.89490830748844 x96
       + 5.59383913645704 x97 + 6.35127419225308 x98 + 13.5194692351601 x99
       + 7.79900694775244 x100 + 9.7438159122879 x101 + 4.04984071073619 x102
       + 5.82374611458848 x103 + 8.33965122348841 x104 + 3.98276210453792 x105
       + 8.88281118067963 x106 + 11.8954451240263 x107 + 8.7753999970158 x108
       + 13.0115372387767 x109 + 2.12384647338182 x110 + 3.3946522758288 x111
       + 17.8910617883058 x112 + 3.92027689467053 x113 + 11.1754035419128 x114
       + 4.21393059150453 x115 + 9.17683766133226 x116 + 8.12568693548602 x117
       + 1.11874500548344 x118 + 5.23792175901254 x119 + 7.13963699895341 x120
       + 5.21654330668167 x121 + 7.63150552402393 x122 + 8.95638828391105 x123
       + 10.2915106907217 x124 + 13.6450546123111 x125 + 7.94237152962055 x126
       + 13.0155773110958 x127 + 8.31980386789303 x128 + 3.43763901137998 x129
       + 8.01555130886182 x130 + 4.59233800801242 x131 + 5.65935536337782 x132
       + 10.3317964700162 x133 + 11.8574771245863 x134 + 8.65683573405814 x135
       + 8.00298897158605 x136 + 7.91157601138157 x137 + 7.56944763589007 x138
       + 12.2937592227738 x139 + 14.3286105092466 x140 + 12.7863934009878 x141
       + 16.2419493538232 x142 + 3.5587627820662 x143 + 2.64538513569997 x144
       + 21.457262065846 x145 + 5.10354396072644 x146 + 8.20319506384527 x147
       + 5.19787441772362 x148 + 6.33848844541856 x149 + 9.89403918837178 x150
       + 8.55412973068852 x151 + 4.59452150505477 x152 + 5.44639936378313 x153
       + 14.0993419324753 x154 + 11.9395379923918 x155 + 10.0262054872163 x156
       + 9.09583111861073 x157 + 14.8108389536752 x158 + 12.559223608678 x159
       + 6.24642114118809 x160 + 5.63128098822154 x161 + 18.2411598596595 x162
       + 8.96152644999982 x163 + 13.1611623527254 x164 + 5.66000034484547 x165
       + 13.017479646568 x166 + 6.00259958954854 x167 + 7.37691733760422 x168
       + 16.9698621637048 x169 + 4.86564769043802 x170 + 7.28171850798159 x171
       + 4.16879486263745 x172 + 8.75022297869758 x173 + 10.0684010121207 x174
       + 9.17342267945324 x175 + 12.1461711335015 x176 + 4.12099982604071 x177
       + 10.9236913749451 x178 + 11.7329985969654 x179 + 9.50860280065707 x180
       + 10.2475343024121 x181 + 10.2270601203922 x182 + 11.8188520825056 x183
       + 12.6282647232883 x184 + 12.6838224362116 x185 + 13.8627156672735 x186
       + 5.68289352456417 x187 + 1.60153491554747 x188 + 17.9216640877287 x189
       + 19.2309882343382 x190
Subject To
 c1:  x1 + x2 + x3 + x4 + x5 + x6 + x7 + x8 + x9 + x10 + x11 + x12 + x13 + x14
      + x15 + x16 + x17 + x18 + x19  = 2
 c2:  x1 + x20 + x21 + x22 + x23 + x24 + x25 + x26 + x27 + x28 + x29 + x30
      + x31 + x32 + x33 + x34 + x35 + x36 + x37  = 2
 c3:  x2 + x20 + x38 + x39 + x40 + x41 + x42 + x43 + x44 + x45 + x46 + x47
      + x48 + x49 + x50 + x51 + x52 + x53 + x54  = 2
 c4:  x3 + x21 + x38 + x55 + x56 + x57 + x58 + x59 + x60 + x61 + x62 + x63
      + x64 + x65 + x66 + x67 + x68 + x69 + x70  = 2
 c5:  x4 + x22 + x39 + x55 + x71 + x72 + x73 + x74 + x75 + x76 + x77 + x78
      + x79 + x80 + x81 + x82 + x83 + x84 + x85  = 2
 c6:  x5 + x23 + x40 + x56 + x71 + x86 + x87 + x88 + x89 + x90 + x91 + x92
      + x93 + x94 + x95 + x96 + x97 + x98 + x99  = 2
 c7:  x6 + x24 + x41 + x57 + x72 + x86 + x100 + x101 + x102 + x103 + x104
      + x105 + x106 + x107 + x108 + x109 + x110 + x111 + x112  = 2
 c8:  x7 + x25 + x42 + x58 + x73 + x87 + x100 + x113 + x114 + x115 + x116
      + x117 + x118 + x119 + x120 + x121 + x122 + x123 + x124  = 2
 c9:  x8 + x26 + x43 + x59 + x74 + x88 + x101 + x113 + x125 + x126 + x127
      + x128 + x129 + x130 + x131 + x132 + x133 + x134 + x135  = 2
 c10: x9 + x27 + x44 + x60 + x75 + x89 + x102 + x114 + x125 + x136 + x137
      + x138 + x139 + x140 + x141 + x142 + x143 + x144 + x145  = 2
 c11: x10 + x28 + x45 + x61 + x76 + x90 + x103 + x115 + x126 + x136 + x146
      + x147 + x148 + x149 + x150 + x151 + x152 + x153 + x154  = 2
 c12: x11 + x29 + x46 + x62 + x77 + x91 + x104 + x116 + x127 + x137 + x146
      + x155 + x156 + x157 + x158 + x159 + x160 + x161 + x162  = 2
 c13: x12 + x30 + x47 + x63 + x78 + x92 + x105 + x117 + x128 + x138 + x147
      + x155 + x163 + x164 + x165 + x166 + x167 + x168 + x169  = 2
 c14: x13 + x31 + x48 + x64 + x79 + x93 + x106 + x118 + x129 + x139 + x148
      + x156 + x163 + x170 + x171 + x172 + x173 + x174 + x175  = 2
 c15: x14 + x32 + x49 + x65 + x80 + x94 + x107 + x119 + x130 + x140 + x149
      + x157 + x164 + x170 + x176 + x177 + x178 + x179 + x180  = 2
 c16: x15 + x33 + x50 + x66 + x81 + x95 + x108 + x120 + x131 + x141 + x150
      + x158 + x165 + x171 + x176 + x181 + x182 + x183 + x184  = 2
 c17: x16 + x34 + x51 + x67 + x82 + x96 + x109 + x121 + x132 + x142 + x151
      + x159 + x166 + x172 + x177 + x181 + x185 + x186 + x187  = 2
 c18: x17 + x35 + x52 + x68 + x83 + x97 + x110 + x122 + x133 + x143 + x152
      + x160 + x167 + x173 + x178 + x182 + x185 + x188 + x189  = 2
 c19: x18 + x36 + x53 + x69 + x84 + x98 + x111 + x123 + x134 + x144 + x153
      + x161 + x168 + x174 + x179 + x183 + x186 + x188 + x190  = 2
 c20: x19 + x37 + x54 + x70 + x85 + x99 + x112 + x124 + x135 + x145 + x154
      + x162 + x169 + x175 + x180 + x184 + x187 + x189 + x190  = 2
 c21: x1 + x2 + x3 + x5 + x6 + x8 + x9 + x10 + x11 + x12 + x14 + x15 + x16
      + x17 + x18 + x19 + x20 + x21 + x23 + x24 + x26 + x27 + x28 + x29 + x30
      + x32 + x33 + x34 + x35 + x36 + x37 + x38 + x40 + x41 + x43 + x44 + x45
      + x46 + x47 + x49 + x50 + x51 + x52 + x53 + x54 + x56 + x57 + x59 + x60
      + x61 + x62 + x63 + x65 + x66 + x67 + x68 + x69 + x70 + x86 + x88 + x89
      + x90 + x91 + x92 + x94 + x95 + x96 + x97 + x98 + x99 + x101 + x102
      + x103 + x104 + x105 + x107 + x108 + x109 + x110 + x111 + x112 + x125
      + x126 + x127 + x128 + x130 + x131 + x132 + x133 + x134 + x135 + x136
      + x137 + x138 + x140 + x141 + x142 + x143 + x144 + x145 + x146 + x147
      + x149 + x150 + x151 + x152 + x153 + x154 + x155 + x157 + x158 + x159
      + x160 + x161 + x162 + x164 + x165 + x166 + x167 + x168 + x169 + x176
      + x177 + x178 + x179 + x180 + x181 + x182 + x183 + x184 + x185 + x186
      + x187 + x188 + x189 + x190 <= 16
 c22: x73 + x79 + x118 <= 2
 c23: x1 + x2 + x4 + x5 + x6 + x7 + x8 + x9 + x10 + x11 + x12 + x13 + x14 + x15
      + x17 + x18 + x20 + x22 + x23 + x24 + x25 + x26 + x27 + x28 + x29 + x30
      + x31 + x32 + x33 + x35 + x36 + x39 + x40 + x41 + x42 + x43 + x44 + x45
      + x46 + x47 + x48 + x49 + x50 + x52 + x53 + x71 + x72 + x73 + x74 + x75
      + x76 + x77 + x78 + x79 + x80 + x81 + x83 + x84 + x86 + x87 + x88 + x89
      + x90 + x91 + x92 + x93 + x94 + x95 + x97 + x98 + x100 + x101 + x102
      + x103 + x104 + x105 + x106 + x107 + x108 + x110 + x111 + x113 + x114
      + x115 + x116 + x117 + x118 + x119 + x120 + x122 + x123 + x125 + x126
      + x127 + x128 + x129 + x130 + x131 + x133 + x134 + x136 + x137 + x138
      + x139 + x140 + x141 + x143 + x144 + x146 + x147 + x148 + x149 + x150
      + x152 + x153 + x155 + x156 + x157 + x158 + x160 + x161 + x163 + x164
      + x165 + x167 + x168 + x170 + x171 + x173 + x174 + x176 + x178 + x179
      + x182 + x183 + x188 <= 16
 c24: x67 + x70 + x187 <= 2
 c25: x3 + x4 + x7 + x8 + x13 + x14 + x16 + x19 + x55 + x58 + x59 + x64 + x65
      + x67 + x70 + x73 + x74 + x79 + x80 + x82 + x85 + x113 + x118 + x119
      + x121 + x124 + x129 + x130 + x132 + x135 + x170 + x172 + x175 + x177
      + x180 + x187 <= 8
 c26: x20 + x30 + x33 + x47 + x50 + x165 <= 3
 c27: x90 + x91 + x146 <= 2
 c28: x102 + x110 + x111 + x143 + x144 + x188 <= 3
Bounds
 0 <= x1 <= 1
 0 <= x2 <= 1
 0 <= x3 <= 1
 0 <= x4 <= 1
 0 <= x5 <= 1
 0 <= x6 <= 1
 0 <= x7 <= 1
 0 <= x8 <= 1
 0 <= x9 <= 1
 0 <= x10 <= 1
 0 <= x11 <= 1
 0 <= x12 <= 1
 0 <= x13 <= 1
 0 <= x14 <= 1
 0 <= x15 <= 1
 0 <= x16 <= 1
 0 <= x17 <= 1
 0 <= x18 <= 1
 0 <= x19 <= 1
 0 <= x20 <= 1
 0 <= x21 <= 1
 0 <= x22 <= 1
 0 <= x23 <= 1
 0 <= x24 <= 1
 0 <= x25 <= 1
 0 <= x26 <= 1
 0 <= x27 <= 1
 0 <= x28 <= 1
 0 <= x29 <= 1
 0 <= x30 <= 1
 0 <= x31 <= 1
 0 <= x32 <= 1
 0 <= x33 <= 1
 0 <= x34 <= 1
 0 <= x35 <= 1
 0 <= x36 <= 1
 0 <= x37 <= 1
 0 <= x38 <= 1
 0 <= x39 <= 1
 0 <= x40 <= 1
 0 <= x41 <= 1
 0 <= x42 <= 1
 0 <= x43 <= 1
 0 <= x44 <= 1
 0 <= x45 <= 1
 0 <= x46 <= 1
 0 <= x47 <= 1
 0 <= x48 <= 1
 0 <= x49 <= 1
 0 <= x50 <= 1
 0 <= x51 <= 1
 0 <= x52 <= 1
 0 <= x53 <= 1
 0 <= x54 <= 1
 0 <= x55 <= 1
 0 <= x56 <= 1
 0 <= x57 <= 1
 0 <= x58 <= 1
 0 <= x59 <= 1
 0 <= x60 <= 1
 0 <= x61 <= 1
 0 <= x62 <= 1
 0 <= x63 <= 1
 0 <= x64 <= 1
 0 <= x65 <= 1
 0 <= x66 <= 1
 0 <= x67 <= 1
 0 <= x68 <= 1
 0 <= x69 <= 1
 0 <= x70 <= 1
 0 <= x71 <= 1
 0 <= x72 <= 1
 0 <= x73 <= 1
 0 <= x74 <= 1
 0 <= x75 <= 1
 0 <= x76 <= 1
 0 <= x77 <= 1
 0 <= x78 <= 1
 0 <= x79 <= 1
 0 <= x80 <= 1
 0 <= x81 <= 1
 0 <= x82 <= 1
 0 <= x83 <= 1
 0 <= x84 <= 1
 0 <= x85 <= 1
 0 <= x86 <= 1
 0 <= x87 <= 1
 0 <= x88 <= 1
 0 <= x89 <= 1
 0 <= x90 <= 1
 0 <= x91 <= 1
 0 <= x92 <= 1
 0 <= x93 <= 1
 0 <= x94 <= 1
 0 <= x95 <= 1
 0 <= x96 <= 1
 0 <= x97 <= 1
 0 <= x98 <= 1
 0 <= x99 <= 1
 0 <= x100 <= 1
 0 <= x101 <= 1
 0 <= x102 <= 1
 0 <= x103 <= 1
 0 <= x104 <= 1
 0 <= x105 <= 1
 0 <= x106 <= 1
 0 <= x107 <= 1
 0 <= x108 <= 1
 0 <= x109 <= 1
 0 <= x110 <= 1
 0 <= x111 <= 1
 0 <= x112 <= 1
 0 <= x113 <= 1
 0 <= x114 <= 1
 0 <= x115 <= 1
 0 <= x116 <= 1
 0 <= x117 <= 1
 0 <= x118 <= 1
 0 <= x119 <= 1
 0 <= x120 <= 1
 0 <= x121 <= 1
 0 <= x122 <= 1
 0 <= x123 <= 1
 0 <= x124 <= 1
 0 <= x125 <= 1
 0 <= x126 <= 1
 0 <= x127 <= 1
 0 <= x128 <= 1
 0 <= x129 <= 1
 0 <= x130 <= 1
 0 <= x131 <= 1
 0 <= x132 <= 1
 0 <= x133 <= 1
 0 <= x134 <= 1
 0 <= x135 <= 1
 0 <= x136 <= 1
 0 <= x137 <= 1
 0 <= x138 <= 1
 0 <= x139 <= 1
 0 <= x140 <= 1
 0 <= x141 <= 1
 0 <= x142 <= 1
 0 <= x143 <= 1
 0 <= x144 <= 1
 0 <= x145 <= 1
 0 <= x146 <= 1
 0 <= x147 <= 1
 0 <= x148 <= 1
 0 <= x149 <= 1
 0 <= x150 <= 1
 0 <= x151 <= 1
 0 <= x152 <= 1
 0 <= x153 <= 1
 0 <= x154 <= 1
 0 <= x155 <= 1
 0 <= x156 <= 1
 0 <= x157 <= 1
 0 <= x158 <= 1
 0 <= x159 <= 1
 0 <= x160 <= 1
 0 <= x161 <= 1
 0 <= x162 <= 1
 0 <= x163 <= 1
 0 <= x164 <= 1
 0 <= x165 <= 1
 0 <= x166 <= 1
 0 <= x167 <= 1
 0 <= x168 <= 1
 0 <= x169 <= 1
 0 <= x170 <= 1
 0 <= x171 <= 1
 0 <= x172 <= 1
 0 <= x173 <= 1
 0 <= x174 <= 1
 0 <= x175 <= 1
 0 <= x176 <= 1
 0 <= x177 <= 1
 0 <= x178 <= 1
 0 <= x179 <= 1
 0 <= x180 <= 1
 0 <= x181 <= 1
 0 <= x182 <= 1
 0 <= x183 <= 1
 0 <= x184 <= 1
 0 <= x185 <= 1
 0 <= x186 <= 1
 0 <= x187 <= 1
 0 <= x188 <= 1
 0 <= x189 <= 1
 0 <= x190 <= 1
Binaries
 x1  x2  x3  x4  x5  x6  x7  x8  x9  x10  x11  x12  x13  x14  x15  x16  x17 
 x18  x19  x20  x21  x22  x23  x24  x25  x26  x27  x28  x29  x30  x31  x32 
 x33  x34  x35  x36  x37  x38  x39  x40  x41  x42  x43  x44  x45  x46  x47 
 x48  x49  x50  x51  x52  x53  x54  x55  x56  x57  x58  x59  x60  x61  x62 
 x63  x64  x65  x66  x67  x68  x69  x70  x71  x72  x73  x74  x75  x76  x77 
 x78  x79  x80  x81  x82  x83  x84  x85  x86  x87  x88  x89  x90  x91  x92 
 x93  x94  x95  x96  x97  x98  x99  x100  x101  x102  x103  x104  x105  x106 
 x107  x108  x109  x110  x111  x112  x113  x114  x115  x116  x117  x118  x119 
 x120  x121  x122  x123  x124  x125  x126  x127  x128  x129  x130  x131  x132 
 x133  x134  x135  x136  x137  x138  x139  x140  x141  x142  x143  x144  x145 
 x146  x147  x148  x149  x150  x151  x152  x153  x154  x155  x156  x157  x158 
 x159  x160  x161  x162  x163  x164  x165  x166  x167  x168  x169  x170  x171 
 x172  x173  x174  x175  x176  x177  x178  x179  x180  x181  x182  x183  x184 
 x185  x186  x187  x188  x189  x190 
End
